PROBLEM NAME: eil51_n20
KNAPSACK DATA TYPE: multiple strongly correlated
DIMENSION: 20
NUMBER OF ITEMS: 19
CAPACITY OF KNAPSACK: 5255
MIN SPEED: 0.1
MAX SPEED: 1
RENTING RATIO: 11.75
EDGE_WEIGHT_TYPE: CEIL_2D
NODE_COORD_SECTION	(INDEX, X, Y):
1	20	26
2	17	63
3	31	32
4	5	25
5	36	16
6	27	23
7	13	13
8	57	58
9	62	42
10	27	68
11	43	67
12	46	10
13	61	33
14	32	22
15	10	17
16	5	64
17	30	15
18	39	10
19	32	39
20	30	40
ITEMS SECTION	(INDEX, PROFIT, WEIGHT, ASSIGNED NODE NUMBER):
1	1128	928	4
2	1048	848	15
3	1013	813	7
4	990	790	17
5	973	773	5
6	953	753	18
7	882	682	12
8	852	652	13
9	688	488	9
10	677	477	8
11	593	393	11
12	564	264	10
13	564	364	2
14	553	353	16
15	534	234	20
16	445	245	19
17	442	242	3
18	425	225	14
19	311	111	6
